============================[ Problem Statistics ]=============================|                                                                             ||  Number of variables:          4242                                         ||  Number of clauses:           10039                                         ||  Parse time:                   0.43 s                                       ||                                                                             |============================[ Search Statistics ]==============================| Conflicts |          ORIGINAL         |          LEARNT          | Progress ||           |    Vars  Clauses Literals |    Limit  Clauses Lit/Cl |          |===============================================================================|       100 |    1591     6244   681605 |     2289      100     53 | 62.501 % |===============================================================================restarts              : 3conflicts             : 244            (375 /sec)decisions             : 509            (0.00 % random) (783 /sec)propagations          : 11739          (18060 /sec)conflict literals     : 18305          (94.93 % deleted)CPU time              : 0.65 sSATISFIABLE